p cnf 648 440
-1 2 0
-1 -3 0
-1 -4 0
-1 -5 0
-6 7 0
-6 -8 0
-6 9 0
-6 2 0
-10 -11 0
-10 -12 0
-10 -13 0
-10 2 0
-14 15 0
-14 -16 0
-14 17 0
-14 2 0
-18 2 0
-18 19 0
-18 -20 0
-18 21 0
-22 23 0
-22 -24 0
-22 -25 0
-22 2 0
-26 -27 0
-26 -28 0
-26 -29 0
-26 2 0
-30 -31 0
-30 -32 0
-30 -33 0
-30 2 0
-34 35 0
-34 -36 0
-34 37 0
-34 2 0
-38 2 0
-38 -39 0
-38 -40 0
-38 41 0
-42 2 0
-42 -43 0
-42 -44 0
-42 45 0
-46 2 0
-46 -47 0
-46 48 0
-46 -49 0
-50 2 0
-50 -51 0
-50 -52 0
-50 53 0
-54 2 0
-54 -55 0
-54 -56 0
-54 -57 0
-58 2 0
-58 59 0
-58 -60 0
-58 -61 0
-62 2 0
-62 63 0
-62 -64 0
-62 65 0
-66 67 0
-66 -68 0
-66 -69 0
-66 2 0
-70 71 0
-70 -72 0
-70 73 0
-70 2 0
-74 -75 0
-74 -76 0
-74 77 0
-74 2 0
-78 2 0
-78 -79 0
-78 -80 0
-78 -81 0
-82 2 0
-82 -83 0
-82 -84 0
-82 85 0
-86 -87 0
-86 88 0
-86 -89 0
-86 2 0
-90 91 0
-90 92 0
-90 -93 0
-90 2 0
-94 2 0
-94 95 0
-94 -96 0
-94 97 0
-98 2 0
-98 99 0
-98 100 0
-98 -101 0
-102 -103 0
-102 -104 0
-102 105 0
-102 2 0
-106 2 0
-106 107 0
-106 108 0
-106 -109 0
-110 2 0
-110 111 0
-110 112 0
-110 113 0
-114 2 0
-114 115 0
-114 116 0
-114 -117 0
-118 119 0
-118 120 0
-118 -121 0
-118 2 0
-122 2 0
-122 123 0
-122 124 0
-122 -125 0
-126 127 0
-126 128 0
-126 -129 0
-126 2 0
-130 131 0
-130 132 0
-130 -133 0
-130 2 0
-134 2 0
-134 -135 0
-134 136 0
-134 -137 0
-138 2 0
-138 139 0
-138 -140 0
-138 -141 0
-142 143 0
-142 -144 0
-142 -145 0
-142 2 0
-146 2 0
-146 -147 0
-146 148 0
-146 -149 0
-150 -151 0
-150 152 0
-150 153 0
-150 2 0
-154 -155 0
-154 156 0
-154 -157 0
-154 2 0
-158 159 0
-158 160 0
-158 -161 0
-158 2 0
-162 2 0
-162 163 0
-162 164 0
-162 -165 0
-166 2 0
-166 167 0
-166 -168 0
-166 169 0
-170 2 0
-170 -171 0
-170 172 0
-170 173 0
-174 2 0
-174 -175 0
-174 176 0
-174 177 0
-178 -179 0
-178 180 0
-178 181 0
-178 2 0
-182 2 0
-182 183 0
-182 184 0
-182 185 0
-186 2 0
-186 187 0
-186 188 0
-186 -189 0
-190 2 0
-190 -191 0
-190 192 0
-190 193 0
-194 2 0
-194 195 0
-194 196 0
-194 -197 0
-198 199 0
-198 200 0
-198 -201 0
-198 2 0
-202 -203 0
-202 204 0
-202 -205 0
-202 2 0
-206 207 0
-206 -208 0
-206 -209 0
-206 2 0
-210 211 0
-210 212 0
-210 213 0
-210 2 0
-214 -215 0
-214 -216 0
-214 217 0
-214 2 0
-218 -219 0
-218 220 0
-218 -221 0
-218 2 0
-222 -223 0
-222 224 0
-222 -225 0
-222 2 0
-226 2 0
-226 227 0
-226 228 0
-226 229 0
-230 -231 0
-230 232 0
-230 233 0
-230 2 0
-234 235 0
-234 -236 0
-234 237 0
-234 2 0
-238 -239 0
-238 -240 0
-238 -241 0
-238 2 0
-242 2 0
-242 243 0
-242 -244 0
-242 -245 0
-246 2 0
-246 -247 0
-246 248 0
-246 249 0
-250 2 0
-250 -251 0
-250 -252 0
-250 -253 0
-254 2 0
-254 -255 0
-254 -256 0
-254 -257 0
-258 -259 0
-258 -260 0
-258 -261 0
-258 2 0
-262 2 0
-262 -263 0
-262 -264 0
-262 -265 0
-266 2 0
-266 267 0
-266 -268 0
-266 269 0
-270 2 0
-270 -271 0
-270 -272 0
-270 -273 0
-274 -275 0
-274 -276 0
-274 -277 0
-274 2 0
-278 2 0
-278 279 0
-278 -280 0
-278 -281 0
-282 -283 0
-282 -284 0
-282 -285 0
-282 2 0
-286 -287 0
-286 -288 0
-286 289 0
-286 2 0
-290 2 0
-290 -291 0
-290 -292 0
-290 293 0
-294 2 0
-294 295 0
-294 -296 0
-294 -297 0
-298 299 0
-298 -300 0
-298 -301 0
-298 2 0
-302 2 0
-302 303 0
-302 -304 0
-302 305 0
-306 1 0
6 -307 0
10 -308 0
14 -309 0
-310 18 0
22 -311 0
26 -312 0
-313 30 0
-314 34 0
38 -315 0
-316 42 0
-317 46 0
50 -318 0
-319 54 0
-320 58 0
62 -321 0
-322 66 0
-323 70 0
74 -324 0
78 -325 0
-326 82 0
86 -327 0
90 -328 0
94 -329 0
98 -330 0
-331 102 0
-332 106 0
110 -333 0
114 -334 0
-335 118 0
122 -336 0
126 -337 0
-338 130 0
134 -339 0
-340 138 0
-341 142 0
-342 146 0
-343 150 0
-344 154 0
-345 158 0
-346 162 0
-347 166 0
348 349 330 0
-2 350 -351 352 -353 354 -355 356 0
357 358 -2 359 -360 361 0
-2 362 -363 -364 365 366 0
-2 367 368 369 332 370 -371 372 0
335 336 373 0
-2 374 -375 376 377 -378 -379 380 381 -382 0
309 310 -2 -383 -384 -385 0
-2 386 -387 -388 389 -390 -391 -392 393 394 0
-2 -395 396 -397 -398 399 -400 -401 402 403 0
-2 -404 405 -406 407 408 0
-2 409 -410 411 312 412 0
-2 413 414 -415 314 -416 417 418 0
316 340 341 0
339 317 -2 419 420 -421 0
422 423 335 0
322 323 424 0
-2 425 -426 -427 428 -429 -430 431 0
-2 -432 -433 434 339 324 0
-2 -435 -436 437 -438 -439 440 441 0
-2 -442 -443 -444 310 445 -446 -447 0
-2 448 449 -450 451 452 -453 454 0
455 -2 -456 -457 458 -459 -460 -461 0
-2 462 -463 464 325 345 0
-2 465 466 467 -468 -469 470 471 472 473 0
474 346 -2 475 476 477 0
-2 -478 479 -480 -481 -482 483 484 0
327 -2 485 -486 -487 488 -489 -490 0
-2 491 -492 493 422 -494 495 -496 0
339 -2 -497 -498 499 500 501 -502 0
-2 503 504 -505 321 506 0
-2 507 -508 509 -510 -511 -512 328 0
347 -2 513 514 -515 -516 517 -518 0
-2 519 520 -521 338 522 523 -524 0
-2 525 -526 527 -528 529 530 -531 -532 -533 0
-2 -534 -535 -536 537 538 -539 331 0
326 -2 -540 -541 -542 543 0
-2 544 545 546 547 548 -549 344 0
-2 550 551 -552 343 553 0
321 -2 554 -555 556 -557 -558 559 0
320 560 342 0
-2 -561 -562 -563 -564 565 -566 319 0
-2 -567 568 -569 570 571 572 318 0
315 -2 573 -574 575 -576 577 578 0
-2 -579 580 -581 313 582 0
424 -2 -583 -584 -585 586 -587 -588 0
-2 -589 590 -591 592 339 0
-2 593 594 -595 596 597 -598 412 0
311 599 600 0
601 602 -2 603 -604 605 0
338 606 -2 -607 -608 609 0
337 -2 610 611 612 600 0
308 -2 -613 614 -615 616 0
306 -2 617 618 -619 620 -621 -622 0
-2 -623 -624 -625 -626 -627 628 629 630 631 0
307 -2 -632 633 -634 423 0
-2 -635 -636 -637 334 333 0
306 638 331 0
-2 639 640 641 642 643 -644 645 0
-2 646 -647 -648 329 455 0
-543 170 0
174 -484 0
178 -454 0
182 -431 0
186 -424 0
-592 190 0
-412 194 0
-602 198 0
-601 202 0
206 -616 0
-423 210 0
-365 214 0
218 -356 0
222 -349 0
-348 226 0
-506 230 0
234 -474 0
-553 238 0
242 -441 0
-422 246 0
250 -560 0
-582 254 0
-408 258 0
-407 262 0
266 -599 0
270 -606 0
274 -600 0
278 -373 0
282 -366 0
286 -358 0
-357 290 0
294 -638 0
298 -642 0
302 -455 0
